% seed = 0

mint = 15;
% maxt = 66;

nActs = 32;
dur = [0,3,4,3,3,2,1,2,1,1,1,2,2,2,3,3,3,3,2,2,3,2,2,2,2,2,3,2,3,1,1,0];

nSkills = 15;
sreq = [| 0,0,0,0,0,0,0,0,0,0,0,0,0,0,0,
	| 0,0,0,0,0,0,0,0,0,0,2,1,1,1,0,
	| 0,0,0,0,0,0,0,0,0,0,0,0,1,0,0,
	| 0,0,0,0,0,0,0,0,1,0,1,1,0,1,1,
	| 0,0,1,0,0,0,0,1,0,1,0,0,0,0,0,
	| 1,0,1,0,0,0,1,1,2,0,0,0,1,0,0,
	| 0,0,0,0,0,0,0,1,1,0,0,2,0,1,0,
	| 0,0,0,0,0,0,0,0,0,0,2,1,0,0,0,
	| 0,0,0,0,1,0,0,0,0,1,1,0,0,0,1,
	| 0,0,0,0,0,0,0,0,1,0,1,1,1,1,0,
	| 0,0,0,0,0,0,0,1,0,0,1,0,1,1,1,
	| 0,0,0,0,1,0,0,1,0,0,0,2,2,1,0,
	| 0,0,2,0,0,0,1,0,0,0,0,0,0,0,0,
	| 0,0,2,0,0,0,0,0,0,0,0,0,1,1,0,
	| 0,1,1,0,0,0,0,0,0,1,0,0,0,0,0,
	| 0,0,1,0,1,0,0,0,0,0,0,0,0,1,0,
	| 1,0,0,0,0,0,0,0,1,0,0,0,0,0,1,
	| 0,0,1,0,0,0,0,0,0,0,0,0,0,0,0,
	| 0,0,0,0,0,1,2,0,0,0,1,0,1,1,0,
	| 1,0,0,0,0,0,0,0,1,0,1,0,0,0,1,
	| 0,0,0,0,0,2,0,1,0,0,1,0,1,0,1,
	| 0,0,1,1,0,1,0,0,0,0,0,0,0,0,0,
	| 0,0,1,0,0,0,2,0,1,0,0,0,0,0,1,
	| 0,1,0,0,0,0,1,0,1,0,2,0,0,0,1,
	| 0,0,1,0,0,0,0,0,0,0,0,0,0,0,0,
	| 0,0,0,0,0,0,0,0,1,0,0,0,1,0,0,
	| 0,1,0,0,0,1,0,0,1,0,0,0,0,0,0,
	| 0,0,1,0,0,0,0,1,0,0,1,0,0,1,0,
	| 0,0,1,0,0,0,0,0,1,0,1,0,0,1,0,
	| 0,0,0,0,1,0,0,0,1,0,0,0,1,0,0,
	| 0,0,1,0,0,0,1,0,1,0,1,0,1,2,0,
	| 0,0,0,0,0,0,0,0,0,0,0,0,0,0,0, |];

% SumOfsreq = 121;

nResources = 21;
mastery = [| false,false,false,false,false,false,false,false,false,false,false,false,false,false,true,
	| false,false,false,false,false,false,false,false,false,true,true,true,false,false,false,
	| false,false,false,true,true,true,false,false,false,false,false,false,false,false,false,
	| false,false,false,false,false,false,false,false,false,false,true,true,false,false,false,
	| false,false,true,false,false,false,false,false,false,false,false,false,false,false,false,
	| false,true,true,false,false,false,false,false,false,false,false,false,false,false,false,
	| false,false,false,false,false,false,false,false,true,false,false,false,false,false,false,
	| false,false,false,false,false,false,false,false,false,true,true,true,false,false,false,
	| false,false,false,false,false,false,false,false,false,false,false,false,true,true,true,
	| false,false,false,false,false,false,false,false,false,false,true,true,true,true,true,
	| false,false,false,false,false,false,false,false,false,false,false,false,true,true,true,
	| false,false,false,false,false,false,false,false,false,false,false,false,true,true,true,
	| false,false,false,false,false,false,true,true,true,false,false,false,false,false,false,
	| false,true,true,false,false,false,false,false,false,false,false,false,false,false,false,
	| true,true,true,false,false,false,false,false,false,false,false,false,false,false,false,
	| false,false,false,false,false,false,true,true,true,false,false,false,false,false,false,
	| false,false,false,false,false,false,true,true,true,false,false,false,true,true,true,
	| false,false,false,true,true,true,true,true,true,false,false,false,false,false,false,
	| false,false,false,false,false,false,false,false,false,false,true,true,false,false,false,
	| false,false,false,false,true,true,false,false,false,false,false,false,false,false,false,
	| false,false,false,false,false,false,false,false,false,true,true,true,false,false,false, |];

nPrecs = 58;
pred = [1,1,1,2,2,2,3,3,4,4,4,5,5,6,6,6,7,7,7,8,9,9,9,10,10,10,11,12,12,12,13,13,13,14,15,15,15,16,16,17,17,17,18,18,19,20,20,21,22,23,24,25,26,27,28,29,30,31];
succ = [2,3,4,12,5,15,13,14,20,6,8,10,23,9,7,16,10,27,18,18,17,11,19,26,22,24,18,19,29,14,25,29,21,23,27,22,16,26,19,26,31,24,29,24,25,25,31,23,31,30,28,30,28,28,30,32,32,32];

nUnrels = 276;
unpred = [2,2,2,2,2,2,2,2,2,2,2,2,3,3,3,3,3,3,3,3,3,3,3,3,3,3,3,3,3,3,3,3,3,4,4,4,4,4,4,4,5,5,5,5,5,5,5,5,5,5,5,5,5,5,5,5,5,5,6,6,6,6,6,6,6,6,7,7,7,7,7,7,7,7,7,7,7,7,7,7,8,8,8,8,8,8,8,8,8,8,8,8,8,8,8,8,8,8,9,9,9,9,9,9,9,9,9,9,9,10,10,10,10,10,10,10,10,10,10,10,10,10,10,10,11,11,11,11,11,11,11,11,11,11,11,11,11,11,11,12,12,12,12,12,12,12,12,12,12,12,12,12,13,13,13,13,13,13,13,13,13,13,13,13,13,14,14,14,14,14,14,14,14,14,14,14,14,14,14,14,15,15,15,15,15,15,15,16,16,16,16,16,16,16,16,16,16,17,17,17,17,17,17,17,17,17,18,18,18,18,18,18,18,18,18,19,19,19,19,19,19,19,19,19,19,20,20,20,20,20,20,20,20,21,21,21,21,21,21,21,21,22,22,22,22,22,22,22,22,23,23,23,23,23,23,23,24,24,24,24,24,25,25,25,25,25,26,26,26,27,27,28,28,29,29,30];
unsucc = [3,4,6,7,8,9,11,13,17,18,20,21,4,5,6,7,8,9,10,11,12,15,16,17,18,19,20,22,24,26,27,28,31,5,12,13,14,15,21,23,6,7,8,9,11,12,13,14,15,16,17,18,19,20,21,25,27,29,8,12,13,14,15,20,21,23,8,9,11,12,13,14,15,16,17,19,20,21,23,25,9,10,11,12,13,14,15,16,17,19,20,21,22,23,25,26,27,31,10,12,13,14,15,16,20,21,22,23,27,11,12,13,14,15,16,17,18,19,20,21,23,25,27,29,12,13,14,15,16,17,19,20,21,22,23,25,26,27,31,13,15,16,17,18,20,21,22,24,26,27,28,31,14,15,16,17,18,19,20,22,24,26,27,28,31,15,16,17,18,19,20,21,22,24,25,26,27,28,29,31,17,18,20,21,23,24,29,17,18,20,21,22,23,24,27,29,31,18,19,20,21,22,23,25,27,29,19,20,21,22,23,25,26,27,31,20,21,22,23,24,26,27,28,29,31,21,22,23,24,26,27,28,29,22,24,25,26,27,28,29,31,23,24,25,26,27,28,29,30,24,25,26,27,28,29,31,25,26,27,29,31,26,27,28,29,31,27,29,31,29,31,29,31,30,31,31];

USEFUL_RES = [{},
	{2,4,8,9,10,11,12,17,19,21},
	{9,10,11,12,17},
	{1,2,4,7,8,9,10,11,12,13,16,17,18,19,21},
	{2,5,6,8,13,14,15,16,17,18,21},
	{5,6,7,9,10,11,12,13,14,15,16,17,18},
	{2,4,7,8,9,10,11,12,13,16,17,18,19,21},
	{2,4,8,10,19,21},
	{1,2,3,4,8,9,10,11,12,17,18,19,20,21},
	{2,4,7,8,9,10,11,12,13,16,17,18,19,21},
	{1,2,4,8,9,10,11,12,13,16,17,18,19,21},
	{2,3,4,8,9,10,11,12,13,16,17,18,19,20,21},
	{5,6,13,14,15,16,17,18},
	{5,6,9,10,11,12,14,15,17},
	{2,5,6,8,14,15,21},
	{3,5,6,9,10,11,12,14,15,17,18,20},
	{1,7,9,10,11,12,13,15,16,17,18},
	{5,6,14,15},
	{2,3,4,8,9,10,11,12,13,16,17,18,19,20,21},
	{1,2,4,7,8,9,10,11,12,13,15,16,17,18,19,21},
	{1,2,3,4,8,9,10,11,12,13,16,17,18,19,20,21},
	{3,5,6,14,15,18,20},
	{1,5,6,7,9,10,11,12,13,14,15,16,17,18},
	{1,2,4,6,7,8,9,10,11,12,13,14,15,16,17,18,19,21},
	{5,6,14,15},
	{7,9,10,11,12,13,16,17,18},
	{3,6,7,13,14,15,16,17,18,20},
	{2,4,5,6,8,9,10,11,12,13,14,15,16,17,18,19,21},
	{2,4,5,6,7,8,9,10,11,12,13,14,15,16,17,18,19,21},
	{3,7,9,10,11,12,13,16,17,18,20},
	{2,4,5,6,7,8,9,10,11,12,13,14,15,16,17,18,19,21},
	{}];

POTENTIAL_ACT = [{4,9,11,17,20,21,23,24},
	{2,4,5,7,8,9,10,11,12,15,19,20,21,24,28,29,31},
	{9,12,16,19,21,22,27,30},
	{2,4,7,8,9,10,11,12,19,20,21,24,28,29,31},
	{5,6,13,14,15,16,18,22,23,25,28,29,31},
	{5,6,13,14,15,16,18,22,23,24,25,27,28,29,31},
	{4,6,7,10,17,20,23,24,26,27,29,30,31},
	{2,4,5,7,8,9,10,11,12,15,19,20,21,24,28,29,31},
	{2,3,4,6,7,9,10,11,12,14,16,17,19,20,21,23,24,26,28,29,30,31},
	{2,3,4,6,7,8,9,10,11,12,14,16,17,19,20,21,23,24,26,28,29,30,31},
	{2,3,4,6,7,9,10,11,12,14,16,17,19,20,21,23,24,26,28,29,30,31},
	{2,3,4,6,7,9,10,11,12,14,16,17,19,20,21,23,24,26,28,29,30,31},
	{4,5,6,7,10,11,12,13,17,19,20,21,23,24,26,27,28,29,30,31},
	{5,6,13,14,15,16,18,22,23,24,25,27,28,29,31},
	{5,6,13,14,15,16,17,18,20,22,23,24,25,27,28,29,31},
	{4,5,6,7,10,11,12,13,17,19,20,21,23,24,26,27,28,29,30,31},
	{2,3,4,5,6,7,9,10,11,12,13,14,16,17,19,20,21,23,24,26,27,28,29,30,31},
	{4,5,6,7,9,10,11,12,13,16,17,19,20,21,22,23,24,26,27,28,29,30,31},
	{2,4,7,8,9,10,11,12,19,20,21,24,28,29,31},
	{9,12,16,19,21,22,27,30},
	{2,4,5,7,8,9,10,11,12,15,19,20,21,24,28,29,31}];
